(set-logic LRA)
 
(define-fun OutputNeuron_0_idx0 ((onnx__MatMul_0_0 Real) (onnx__MatMul_0_1 Real) (onnx__MatMul_0_2 Real) (onnx__MatMul_0_3 Real) (onnx__MatMul_0_4 Real) (onnx__MatMul_0_5 Real) (onnx__MatMul_0_6 Real) (onnx__MatMul_0_7 Real) (onnx__MatMul_0_8 Real) (onnx__MatMul_0_9 Real) (onnx__MatMul_0_10 Real)) Real
  (let ((a!1 (ite (<= (+ (* (- (/ 40311.0 125000.0)) onnx__MatMul_0_0)
                       (* (/ 375733.0 1000000.0) onnx__MatMul_0_1)
                       (* (/ 184127.0 1000000.0) onnx__MatMul_0_2)
                       (* (/ 99991.0 250000.0) onnx__MatMul_0_3)
                       (* (- (/ 332611.0 1000000.0)) onnx__MatMul_0_4)
                       (* (- (/ 78487.0 1000000.0)) onnx__MatMul_0_5)
                       (* (- (/ 6503.0 100000.0)) onnx__MatMul_0_6)
                       (* (/ 387189.0 1000000.0) onnx__MatMul_0_7)
                       (* (/ 78103.0 500000.0) onnx__MatMul_0_8)
                       (* (/ 24173.0 200000.0) onnx__MatMul_0_9)
                       (* (- (/ 5351.0 20000.0)) onnx__MatMul_0_10))
                    (/ 7437.0 40000.0))
                0.0
                (+ (- (/ 7437.0 40000.0))
                   (* (- (/ 40311.0 125000.0)) onnx__MatMul_0_0)
                   (* (/ 375733.0 1000000.0) onnx__MatMul_0_1)
                   (* (/ 184127.0 1000000.0) onnx__MatMul_0_2)
                   (* (/ 99991.0 250000.0) onnx__MatMul_0_3)
                   (* (- (/ 332611.0 1000000.0)) onnx__MatMul_0_4)
                   (* (- (/ 78487.0 1000000.0)) onnx__MatMul_0_5)
                   (* (- (/ 6503.0 100000.0)) onnx__MatMul_0_6)
                   (* (/ 387189.0 1000000.0) onnx__MatMul_0_7)
                   (* (/ 78103.0 500000.0) onnx__MatMul_0_8)
                   (* (/ 24173.0 200000.0) onnx__MatMul_0_9)
                   (* (- (/ 5351.0 20000.0)) onnx__MatMul_0_10))))
      (a!2 (ite (<= (+ (* (/ 241463.0 1000000.0) onnx__MatMul_0_0)
                       (* (/ 1165701.0 1000000.0) onnx__MatMul_0_1)
                       (* (/ 302269.0 1000000.0) onnx__MatMul_0_2)
                       (* (- (/ 290803.0 500000.0)) onnx__MatMul_0_3)
                       (* (/ 86787.0 500000.0) onnx__MatMul_0_4)
                       (* (- (/ 237463.0 1000000.0)) onnx__MatMul_0_5)
                       (* (/ 76129.0 200000.0) onnx__MatMul_0_6)
                       (* (/ 226947.0 500000.0) onnx__MatMul_0_7)
                       (* (/ 2601.0 12500.0) onnx__MatMul_0_8)
                       (* (- (/ 2687.0 62500.0)) onnx__MatMul_0_9)
                       (* (- (/ 346927.0 500000.0)) onnx__MatMul_0_10))
                    (- (/ 47613.0 500000.0)))
                0.0
                (+ (/ 47613.0 500000.0)
                   (* (/ 241463.0 1000000.0) onnx__MatMul_0_0)
                   (* (/ 1165701.0 1000000.0) onnx__MatMul_0_1)
                   (* (/ 302269.0 1000000.0) onnx__MatMul_0_2)
                   (* (- (/ 290803.0 500000.0)) onnx__MatMul_0_3)
                   (* (/ 86787.0 500000.0) onnx__MatMul_0_4)
                   (* (- (/ 237463.0 1000000.0)) onnx__MatMul_0_5)
                   (* (/ 76129.0 200000.0) onnx__MatMul_0_6)
                   (* (/ 226947.0 500000.0) onnx__MatMul_0_7)
                   (* (/ 2601.0 12500.0) onnx__MatMul_0_8)
                   (* (- (/ 2687.0 62500.0)) onnx__MatMul_0_9)
                   (* (- (/ 346927.0 500000.0)) onnx__MatMul_0_10))))
      (a!3 (ite (<= (+ (* (/ 1999.0 6250.0) onnx__MatMul_0_0)
                       (* (/ 16981.0 125000.0) onnx__MatMul_0_1)
                       (* (- (/ 76989.0 1000000.0)) onnx__MatMul_0_2)
                       (* (/ 158779.0 500000.0) onnx__MatMul_0_3)
                       (* (/ 55071.0 125000.0) onnx__MatMul_0_4)
                       (* (/ 2547.0 15625.0) onnx__MatMul_0_5)
                       (* (- (/ 154671.0 500000.0)) onnx__MatMul_0_6)
                       (* (/ 32091.0 50000.0) onnx__MatMul_0_7)
                       (* (- (/ 33341.0 500000.0)) onnx__MatMul_0_8)
                       (* (/ 4843.0 12500.0) onnx__MatMul_0_9)
                       (* (- (/ 47753.0 250000.0)) onnx__MatMul_0_10))
                    (/ 143527.0 1000000.0))
                0.0
                (+ (- (/ 143527.0 1000000.0))
                   (* (/ 1999.0 6250.0) onnx__MatMul_0_0)
                   (* (/ 16981.0 125000.0) onnx__MatMul_0_1)
                   (* (- (/ 76989.0 1000000.0)) onnx__MatMul_0_2)
                   (* (/ 158779.0 500000.0) onnx__MatMul_0_3)
                   (* (/ 55071.0 125000.0) onnx__MatMul_0_4)
                   (* (/ 2547.0 15625.0) onnx__MatMul_0_5)
                   (* (- (/ 154671.0 500000.0)) onnx__MatMul_0_6)
                   (* (/ 32091.0 50000.0) onnx__MatMul_0_7)
                   (* (- (/ 33341.0 500000.0)) onnx__MatMul_0_8)
                   (* (/ 4843.0 12500.0) onnx__MatMul_0_9)
                   (* (- (/ 47753.0 250000.0)) onnx__MatMul_0_10))))
      (a!4 (ite (<= (+ (* (/ 14417.0 50000.0) onnx__MatMul_0_0)
                       (* (/ 635821.0 500000.0) onnx__MatMul_0_1)
                       (* (/ 27829.0 200000.0) onnx__MatMul_0_2)
                       (* (- (/ 468999.0 1000000.0)) onnx__MatMul_0_3)
                       (* (/ 196263.0 500000.0) onnx__MatMul_0_4)
                       (* (- (/ 130161.0 250000.0)) onnx__MatMul_0_5)
                       (* (/ 747509.0 1000000.0) onnx__MatMul_0_6)
                       (* (/ 177553.0 500000.0) onnx__MatMul_0_7)
                       (* (/ 30851.0 200000.0) onnx__MatMul_0_8)
                       (* (- (/ 50919.0 100000.0)) onnx__MatMul_0_9)
                       (* (- (/ 9259.0 10000.0)) onnx__MatMul_0_10))
                    (- (/ 122243.0 500000.0)))
                0.0
                (+ (/ 122243.0 500000.0)
                   (* (/ 14417.0 50000.0) onnx__MatMul_0_0)
                   (* (/ 635821.0 500000.0) onnx__MatMul_0_1)
                   (* (/ 27829.0 200000.0) onnx__MatMul_0_2)
                   (* (- (/ 468999.0 1000000.0)) onnx__MatMul_0_3)
                   (* (/ 196263.0 500000.0) onnx__MatMul_0_4)
                   (* (- (/ 130161.0 250000.0)) onnx__MatMul_0_5)
                   (* (/ 747509.0 1000000.0) onnx__MatMul_0_6)
                   (* (/ 177553.0 500000.0) onnx__MatMul_0_7)
                   (* (/ 30851.0 200000.0) onnx__MatMul_0_8)
                   (* (- (/ 50919.0 100000.0)) onnx__MatMul_0_9)
                   (* (- (/ 9259.0 10000.0)) onnx__MatMul_0_10))))
      (a!5 (ite (<= (+ (* (/ 297597.0 500000.0) onnx__MatMul_0_0)
                       (* (- (/ 392017.0 1000000.0)) onnx__MatMul_0_1)
                       (* (/ 216433.0 500000.0) onnx__MatMul_0_2)
                       (* (/ 461021.0 500000.0) onnx__MatMul_0_3)
                       (* (/ 5491.0 62500.0) onnx__MatMul_0_4)
                       (* (/ 1059223.0 1000000.0) onnx__MatMul_0_5)
                       (* (- (/ 56293.0 1000000.0)) onnx__MatMul_0_6)
                       (* (/ 32079.0 125000.0) onnx__MatMul_0_7)
                       (* (/ 778763.0 1000000.0) onnx__MatMul_0_8)
                       (* (/ 23921.0 25000.0) onnx__MatMul_0_9)
                       (* (/ 162937.0 125000.0) onnx__MatMul_0_10))
                    (- (/ 60583.0 500000.0)))
                0.0
                (+ (/ 60583.0 500000.0)
                   (* (/ 297597.0 500000.0) onnx__MatMul_0_0)
                   (* (- (/ 392017.0 1000000.0)) onnx__MatMul_0_1)
                   (* (/ 216433.0 500000.0) onnx__MatMul_0_2)
                   (* (/ 461021.0 500000.0) onnx__MatMul_0_3)
                   (* (/ 5491.0 62500.0) onnx__MatMul_0_4)
                   (* (/ 1059223.0 1000000.0) onnx__MatMul_0_5)
                   (* (- (/ 56293.0 1000000.0)) onnx__MatMul_0_6)
                   (* (/ 32079.0 125000.0) onnx__MatMul_0_7)
                   (* (/ 778763.0 1000000.0) onnx__MatMul_0_8)
                   (* (/ 23921.0 25000.0) onnx__MatMul_0_9)
                   (* (/ 162937.0 125000.0) onnx__MatMul_0_10))))
      (a!6 (ite (<= (+ (* (- (/ 46383.0 500000.0)) onnx__MatMul_0_0)
                       (* (- (/ 23129.0 125000.0)) onnx__MatMul_0_1)
                       (* (- (/ 388499.0 1000000.0)) onnx__MatMul_0_2)
                       (* (- (/ 20317.0 200000.0)) onnx__MatMul_0_3)
                       (* (- (/ 275977.0 1000000.0)) onnx__MatMul_0_4)
                       (* (- (/ 108497.0 500000.0)) onnx__MatMul_0_5)
                       (* (- (/ 118843.0 1000000.0)) onnx__MatMul_0_6)
                       (* (/ 35037.0 250000.0) onnx__MatMul_0_7)
                       (* (/ 168007.0 1000000.0) onnx__MatMul_0_8)
                       (* (/ 14403.0 62500.0) onnx__MatMul_0_9)
                       (* (- (/ 183459.0 1000000.0)) onnx__MatMul_0_10))
                    (/ 4631.0 125000.0))
                0.0
                (+ (- (/ 4631.0 125000.0))
                   (* (- (/ 46383.0 500000.0)) onnx__MatMul_0_0)
                   (* (- (/ 23129.0 125000.0)) onnx__MatMul_0_1)
                   (* (- (/ 388499.0 1000000.0)) onnx__MatMul_0_2)
                   (* (- (/ 20317.0 200000.0)) onnx__MatMul_0_3)
                   (* (- (/ 275977.0 1000000.0)) onnx__MatMul_0_4)
                   (* (- (/ 108497.0 500000.0)) onnx__MatMul_0_5)
                   (* (- (/ 118843.0 1000000.0)) onnx__MatMul_0_6)
                   (* (/ 35037.0 250000.0) onnx__MatMul_0_7)
                   (* (/ 168007.0 1000000.0) onnx__MatMul_0_8)
                   (* (/ 14403.0 62500.0) onnx__MatMul_0_9)
                   (* (- (/ 183459.0 1000000.0)) onnx__MatMul_0_10)))))
  (+ (/ 7249.0 15625.0)
     (* (/ 205947.0 500000.0) a!1)
     (* (- (/ 619959.0 500000.0)) a!2)
     (* (/ 443757.0 500000.0) a!3)
     (* (- (/ 106439.0 100000.0)) a!4)
     (* (/ 723649.0 1000000.0) a!5)
     (* (/ 419979.0 1000000.0) a!6)))
)

(define-fun OutputNeuron_0_idx1 ((onnx__MatMul_0_0 Real) (onnx__MatMul_0_1 Real) (onnx__MatMul_0_2 Real) (onnx__MatMul_0_3 Real) (onnx__MatMul_0_4 Real) (onnx__MatMul_0_5 Real) (onnx__MatMul_0_6 Real) (onnx__MatMul_0_7 Real) (onnx__MatMul_0_8 Real) (onnx__MatMul_0_9 Real) (onnx__MatMul_0_10 Real)) Real
  (let ((a!1 (ite (<= (+ (* (- (/ 40311.0 125000.0)) onnx__MatMul_0_0)
                       (* (/ 375733.0 1000000.0) onnx__MatMul_0_1)
                       (* (/ 184127.0 1000000.0) onnx__MatMul_0_2)
                       (* (/ 99991.0 250000.0) onnx__MatMul_0_3)
                       (* (- (/ 332611.0 1000000.0)) onnx__MatMul_0_4)
                       (* (- (/ 78487.0 1000000.0)) onnx__MatMul_0_5)
                       (* (- (/ 6503.0 100000.0)) onnx__MatMul_0_6)
                       (* (/ 387189.0 1000000.0) onnx__MatMul_0_7)
                       (* (/ 78103.0 500000.0) onnx__MatMul_0_8)
                       (* (/ 24173.0 200000.0) onnx__MatMul_0_9)
                       (* (- (/ 5351.0 20000.0)) onnx__MatMul_0_10))
                    (/ 7437.0 40000.0))
                0.0
                (+ (- (/ 7437.0 40000.0))
                   (* (- (/ 40311.0 125000.0)) onnx__MatMul_0_0)
                   (* (/ 375733.0 1000000.0) onnx__MatMul_0_1)
                   (* (/ 184127.0 1000000.0) onnx__MatMul_0_2)
                   (* (/ 99991.0 250000.0) onnx__MatMul_0_3)
                   (* (- (/ 332611.0 1000000.0)) onnx__MatMul_0_4)
                   (* (- (/ 78487.0 1000000.0)) onnx__MatMul_0_5)
                   (* (- (/ 6503.0 100000.0)) onnx__MatMul_0_6)
                   (* (/ 387189.0 1000000.0) onnx__MatMul_0_7)
                   (* (/ 78103.0 500000.0) onnx__MatMul_0_8)
                   (* (/ 24173.0 200000.0) onnx__MatMul_0_9)
                   (* (- (/ 5351.0 20000.0)) onnx__MatMul_0_10))))
      (a!2 (ite (<= (+ (* (/ 241463.0 1000000.0) onnx__MatMul_0_0)
                       (* (/ 1165701.0 1000000.0) onnx__MatMul_0_1)
                       (* (/ 302269.0 1000000.0) onnx__MatMul_0_2)
                       (* (- (/ 290803.0 500000.0)) onnx__MatMul_0_3)
                       (* (/ 86787.0 500000.0) onnx__MatMul_0_4)
                       (* (- (/ 237463.0 1000000.0)) onnx__MatMul_0_5)
                       (* (/ 76129.0 200000.0) onnx__MatMul_0_6)
                       (* (/ 226947.0 500000.0) onnx__MatMul_0_7)
                       (* (/ 2601.0 12500.0) onnx__MatMul_0_8)
                       (* (- (/ 2687.0 62500.0)) onnx__MatMul_0_9)
                       (* (- (/ 346927.0 500000.0)) onnx__MatMul_0_10))
                    (- (/ 47613.0 500000.0)))
                0.0
                (+ (/ 47613.0 500000.0)
                   (* (/ 241463.0 1000000.0) onnx__MatMul_0_0)
                   (* (/ 1165701.0 1000000.0) onnx__MatMul_0_1)
                   (* (/ 302269.0 1000000.0) onnx__MatMul_0_2)
                   (* (- (/ 290803.0 500000.0)) onnx__MatMul_0_3)
                   (* (/ 86787.0 500000.0) onnx__MatMul_0_4)
                   (* (- (/ 237463.0 1000000.0)) onnx__MatMul_0_5)
                   (* (/ 76129.0 200000.0) onnx__MatMul_0_6)
                   (* (/ 226947.0 500000.0) onnx__MatMul_0_7)
                   (* (/ 2601.0 12500.0) onnx__MatMul_0_8)
                   (* (- (/ 2687.0 62500.0)) onnx__MatMul_0_9)
                   (* (- (/ 346927.0 500000.0)) onnx__MatMul_0_10))))
      (a!3 (ite (<= (+ (* (/ 1999.0 6250.0) onnx__MatMul_0_0)
                       (* (/ 16981.0 125000.0) onnx__MatMul_0_1)
                       (* (- (/ 76989.0 1000000.0)) onnx__MatMul_0_2)
                       (* (/ 158779.0 500000.0) onnx__MatMul_0_3)
                       (* (/ 55071.0 125000.0) onnx__MatMul_0_4)
                       (* (/ 2547.0 15625.0) onnx__MatMul_0_5)
                       (* (- (/ 154671.0 500000.0)) onnx__MatMul_0_6)
                       (* (/ 32091.0 50000.0) onnx__MatMul_0_7)
                       (* (- (/ 33341.0 500000.0)) onnx__MatMul_0_8)
                       (* (/ 4843.0 12500.0) onnx__MatMul_0_9)
                       (* (- (/ 47753.0 250000.0)) onnx__MatMul_0_10))
                    (/ 143527.0 1000000.0))
                0.0
                (+ (- (/ 143527.0 1000000.0))
                   (* (/ 1999.0 6250.0) onnx__MatMul_0_0)
                   (* (/ 16981.0 125000.0) onnx__MatMul_0_1)
                   (* (- (/ 76989.0 1000000.0)) onnx__MatMul_0_2)
                   (* (/ 158779.0 500000.0) onnx__MatMul_0_3)
                   (* (/ 55071.0 125000.0) onnx__MatMul_0_4)
                   (* (/ 2547.0 15625.0) onnx__MatMul_0_5)
                   (* (- (/ 154671.0 500000.0)) onnx__MatMul_0_6)
                   (* (/ 32091.0 50000.0) onnx__MatMul_0_7)
                   (* (- (/ 33341.0 500000.0)) onnx__MatMul_0_8)
                   (* (/ 4843.0 12500.0) onnx__MatMul_0_9)
                   (* (- (/ 47753.0 250000.0)) onnx__MatMul_0_10))))
      (a!4 (ite (<= (+ (* (/ 14417.0 50000.0) onnx__MatMul_0_0)
                       (* (/ 635821.0 500000.0) onnx__MatMul_0_1)
                       (* (/ 27829.0 200000.0) onnx__MatMul_0_2)
                       (* (- (/ 468999.0 1000000.0)) onnx__MatMul_0_3)
                       (* (/ 196263.0 500000.0) onnx__MatMul_0_4)
                       (* (- (/ 130161.0 250000.0)) onnx__MatMul_0_5)
                       (* (/ 747509.0 1000000.0) onnx__MatMul_0_6)
                       (* (/ 177553.0 500000.0) onnx__MatMul_0_7)
                       (* (/ 30851.0 200000.0) onnx__MatMul_0_8)
                       (* (- (/ 50919.0 100000.0)) onnx__MatMul_0_9)
                       (* (- (/ 9259.0 10000.0)) onnx__MatMul_0_10))
                    (- (/ 122243.0 500000.0)))
                0.0
                (+ (/ 122243.0 500000.0)
                   (* (/ 14417.0 50000.0) onnx__MatMul_0_0)
                   (* (/ 635821.0 500000.0) onnx__MatMul_0_1)
                   (* (/ 27829.0 200000.0) onnx__MatMul_0_2)
                   (* (- (/ 468999.0 1000000.0)) onnx__MatMul_0_3)
                   (* (/ 196263.0 500000.0) onnx__MatMul_0_4)
                   (* (- (/ 130161.0 250000.0)) onnx__MatMul_0_5)
                   (* (/ 747509.0 1000000.0) onnx__MatMul_0_6)
                   (* (/ 177553.0 500000.0) onnx__MatMul_0_7)
                   (* (/ 30851.0 200000.0) onnx__MatMul_0_8)
                   (* (- (/ 50919.0 100000.0)) onnx__MatMul_0_9)
                   (* (- (/ 9259.0 10000.0)) onnx__MatMul_0_10))))
      (a!5 (ite (<= (+ (* (/ 297597.0 500000.0) onnx__MatMul_0_0)
                       (* (- (/ 392017.0 1000000.0)) onnx__MatMul_0_1)
                       (* (/ 216433.0 500000.0) onnx__MatMul_0_2)
                       (* (/ 461021.0 500000.0) onnx__MatMul_0_3)
                       (* (/ 5491.0 62500.0) onnx__MatMul_0_4)
                       (* (/ 1059223.0 1000000.0) onnx__MatMul_0_5)
                       (* (- (/ 56293.0 1000000.0)) onnx__MatMul_0_6)
                       (* (/ 32079.0 125000.0) onnx__MatMul_0_7)
                       (* (/ 778763.0 1000000.0) onnx__MatMul_0_8)
                       (* (/ 23921.0 25000.0) onnx__MatMul_0_9)
                       (* (/ 162937.0 125000.0) onnx__MatMul_0_10))
                    (- (/ 60583.0 500000.0)))
                0.0
                (+ (/ 60583.0 500000.0)
                   (* (/ 297597.0 500000.0) onnx__MatMul_0_0)
                   (* (- (/ 392017.0 1000000.0)) onnx__MatMul_0_1)
                   (* (/ 216433.0 500000.0) onnx__MatMul_0_2)
                   (* (/ 461021.0 500000.0) onnx__MatMul_0_3)
                   (* (/ 5491.0 62500.0) onnx__MatMul_0_4)
                   (* (/ 1059223.0 1000000.0) onnx__MatMul_0_5)
                   (* (- (/ 56293.0 1000000.0)) onnx__MatMul_0_6)
                   (* (/ 32079.0 125000.0) onnx__MatMul_0_7)
                   (* (/ 778763.0 1000000.0) onnx__MatMul_0_8)
                   (* (/ 23921.0 25000.0) onnx__MatMul_0_9)
                   (* (/ 162937.0 125000.0) onnx__MatMul_0_10))))
      (a!6 (ite (<= (+ (* (- (/ 46383.0 500000.0)) onnx__MatMul_0_0)
                       (* (- (/ 23129.0 125000.0)) onnx__MatMul_0_1)
                       (* (- (/ 388499.0 1000000.0)) onnx__MatMul_0_2)
                       (* (- (/ 20317.0 200000.0)) onnx__MatMul_0_3)
                       (* (- (/ 275977.0 1000000.0)) onnx__MatMul_0_4)
                       (* (- (/ 108497.0 500000.0)) onnx__MatMul_0_5)
                       (* (- (/ 118843.0 1000000.0)) onnx__MatMul_0_6)
                       (* (/ 35037.0 250000.0) onnx__MatMul_0_7)
                       (* (/ 168007.0 1000000.0) onnx__MatMul_0_8)
                       (* (/ 14403.0 62500.0) onnx__MatMul_0_9)
                       (* (- (/ 183459.0 1000000.0)) onnx__MatMul_0_10))
                    (/ 4631.0 125000.0))
                0.0
                (+ (- (/ 4631.0 125000.0))
                   (* (- (/ 46383.0 500000.0)) onnx__MatMul_0_0)
                   (* (- (/ 23129.0 125000.0)) onnx__MatMul_0_1)
                   (* (- (/ 388499.0 1000000.0)) onnx__MatMul_0_2)
                   (* (- (/ 20317.0 200000.0)) onnx__MatMul_0_3)
                   (* (- (/ 275977.0 1000000.0)) onnx__MatMul_0_4)
                   (* (- (/ 108497.0 500000.0)) onnx__MatMul_0_5)
                   (* (- (/ 118843.0 1000000.0)) onnx__MatMul_0_6)
                   (* (/ 35037.0 250000.0) onnx__MatMul_0_7)
                   (* (/ 168007.0 1000000.0) onnx__MatMul_0_8)
                   (* (/ 14403.0 62500.0) onnx__MatMul_0_9)
                   (* (- (/ 183459.0 1000000.0)) onnx__MatMul_0_10)))))
  (+ (/ 178139.0 1000000.0)
     (* (- (/ 908441.0 1000000.0)) a!1)
     (* (/ 533371.0 500000.0) a!2)
     (* (- (/ 469383.0 1000000.0)) a!3)
     (* (/ 46891.0 31250.0) a!4)
     (* (- (/ 848937.0 1000000.0)) a!5)
     (* (- (/ 374203.0 1000000.0)) a!6)))
)

; --- OutputFunctions --- 
; Output_0: OutputNeuron_0_idx0 
; Output_1: OutputNeuron_0_idx1 
; --- NetworkFinished --- 
